p cnf 25 28
1 0
-2 1 0
-3 1 0
-4 1 0
-1 4 0
-5 1 0
-1 5 0
-6 1 0
-8 9 0
-21 7 0
-19 15 0
-22 1 0
-10 22 0
-22 10 0
-12 22 0
-11 22 0
-13 23 0
-16 23 0
-23 16 0
-17 23 0
-14 23 0
-23 14 0
-15 23 0
-23 1 0
-1 23 0
-18 24 0
-24 18 0
-19 24 0
-20 24 0
-21 24 0
-24 1 0
-9 25 0
-7 25 0
-25 7 0
-8 25 0
-25 1 0